% Auto-generated by scripts/generate_dzn.py
% problem_type   = regex
% instance       = regex_27
% source_json    = instances_json/2_high_blowup/regex_27.json
% blowup         = 19.416666666666668
% representation = DFA

mode = 0;

var_count = 27;
Q = 233;
S = 3;
q0 = 1;
F = {145, 146, 147, 148, 149, 150, 151, 152, 153, 154, 155, 156, 157, 158, 159, 160, 161, 162, 163, 164, 165, 166, 167, 168, 169, 170, 171, 172, 173, 174, 175, 176, 177, 178, 179, 180, 181, 182, 183, 184, 185, 186, 187, 188, 189, 190, 191, 192, 193, 194, 195, 196, 197, 198, 199, 200, 201, 202, 203, 204, 205, 206, 207, 208, 209, 210, 211, 212, 213, 214, 215, 216, 217, 218, 219, 220, 221, 222, 223, 224, 225, 226, 227, 228, 229, 230, 231, 232, 233};
d_dfa = array2d(1..233, 1..3, [
  1, 2, 1,
  3, 2, 1,
  4, 5, 4,
  6, 7, 6,
  8, 7, 6,
  9, 10, 9,
  11, 10, 9,
  12, 13, 12,
  14, 15, 14,
  16, 15, 14,
  17, 18, 17,
  19, 20, 19,
  21, 20, 19,
  22, 23, 22,
  24, 23, 22,
  25, 26, 25,
  27, 28, 27,
  29, 28, 27,
  30, 31, 30,
  32, 31, 30,
  33, 34, 33,
  35, 36, 35,
  37, 36, 35,
  38, 39, 38,
  40, 41, 40,
  42, 41, 40,
  43, 44, 43,
  45, 44, 43,
  46, 47, 46,
  48, 49, 48,
  50, 49, 48,
  51, 52, 51,
  53, 54, 53,
  55, 54, 53,
  56, 57, 56,
  58, 57, 56,
  59, 60, 59,
  61, 62, 61,
  63, 62, 61,
  64, 65, 64,
  66, 65, 64,
  67, 68, 67,
  69, 70, 69,
  71, 70, 69,
  72, 73, 72,
  74, 75, 74,
  76, 75, 74,
  77, 78, 77,
  79, 78, 77,
  80, 81, 80,
  82, 83, 82,
  84, 83, 82,
  85, 86, 85,
  87, 86, 85,
  88, 89, 88,
  90, 91, 90,
  92, 91, 90,
  93, 94, 93,
  95, 96, 95,
  97, 96, 95,
  98, 99, 98,
  100, 99, 98,
  101, 102, 101,
  103, 104, 103,
  105, 104, 103,
  106, 107, 106,
  108, 109, 108,
  110, 109, 108,
  111, 112, 111,
  113, 112, 111,
  114, 115, 114,
  116, 117, 116,
  118, 117, 116,
  119, 120, 119,
  121, 120, 119,
  122, 123, 122,
  124, 125, 124,
  126, 125, 124,
  127, 128, 127,
  129, 130, 129,
  131, 130, 129,
  132, 133, 132,
  134, 133, 132,
  135, 136, 135,
  137, 138, 137,
  139, 138, 137,
  140, 141, 140,
  142, 143, 142,
  144, 143, 142,
  145, 146, 145,
  147, 146, 145,
  148, 149, 148,
  150, 151, 150,
  152, 151, 150,
  153, 154, 153,
  155, 154, 153,
  156, 157, 156,
  158, 159, 158,
  160, 159, 158,
  161, 162, 161,
  163, 164, 163,
  165, 164, 163,
  166, 167, 166,
  168, 167, 166,
  169, 170, 169,
  171, 172, 171,
  173, 172, 171,
  174, 175, 174,
  176, 175, 174,
  177, 178, 177,
  179, 180, 179,
  181, 180, 179,
  182, 183, 182,
  184, 185, 184,
  186, 185, 184,
  187, 188, 187,
  189, 188, 187,
  190, 191, 190,
  192, 193, 192,
  194, 193, 192,
  195, 196, 195,
  197, 198, 197,
  199, 198, 197,
  200, 201, 200,
  202, 201, 200,
  203, 204, 203,
  205, 206, 205,
  207, 206, 205,
  208, 209, 208,
  210, 209, 208,
  211, 212, 211,
  213, 214, 213,
  215, 214, 213,
  216, 217, 216,
  218, 219, 218,
  220, 219, 218,
  221, 222, 221,
  223, 222, 221,
  224, 225, 224,
  226, 227, 226,
  228, 227, 226,
  229, 230, 229,
  231, 230, 229,
  232, 233, 232,
  1, 2, 1,
  3, 2, 1,
  4, 5, 4,
  6, 7, 6,
  8, 7, 6,
  9, 10, 9,
  11, 10, 9,
  12, 13, 12,
  14, 15, 14,
  16, 15, 14,
  17, 18, 17,
  19, 20, 19,
  21, 20, 19,
  22, 23, 22,
  24, 23, 22,
  25, 26, 25,
  27, 28, 27,
  29, 28, 27,
  30, 31, 30,
  32, 31, 30,
  33, 34, 33,
  35, 36, 35,
  37, 36, 35,
  38, 39, 38,
  40, 41, 40,
  42, 41, 40,
  43, 44, 43,
  45, 44, 43,
  46, 47, 46,
  48, 49, 48,
  50, 49, 48,
  51, 52, 51,
  53, 54, 53,
  55, 54, 53,
  56, 57, 56,
  58, 57, 56,
  59, 60, 59,
  61, 62, 61,
  63, 62, 61,
  64, 65, 64,
  66, 65, 64,
  67, 68, 67,
  69, 70, 69,
  71, 70, 69,
  72, 73, 72,
  74, 75, 74,
  76, 75, 74,
  77, 78, 77,
  79, 78, 77,
  80, 81, 80,
  82, 83, 82,
  84, 83, 82,
  85, 86, 85,
  87, 86, 85,
  88, 89, 88,
  90, 91, 90,
  92, 91, 90,
  93, 94, 93,
  95, 96, 95,
  97, 96, 95,
  98, 99, 98,
  100, 99, 98,
  101, 102, 101,
  103, 104, 103,
  105, 104, 103,
  106, 107, 106,
  108, 109, 108,
  110, 109, 108,
  111, 112, 111,
  113, 112, 111,
  114, 115, 114,
  116, 117, 116,
  118, 117, 116,
  119, 120, 119,
  121, 120, 119,
  122, 123, 122,
  124, 125, 124,
  126, 125, 124,
  127, 128, 127,
  129, 130, 129,
  131, 130, 129,
  132, 133, 132,
  134, 133, 132,
  135, 136, 135,
  137, 138, 137,
  139, 138, 137,
  140, 141, 140,
  142, 143, 142,
  144, 143, 142
]);
d_nfa = array2d(1..233, 1..3, [
  {}, {}, {},
  {}, {}, {},
  {}, {}, {},
  {}, {}, {},
  {}, {}, {},
  {}, {}, {},
  {}, {}, {},
  {}, {}, {},
  {}, {}, {},
  {}, {}, {},
  {}, {}, {},
  {}, {}, {},
  {}, {}, {},
  {}, {}, {},
  {}, {}, {},
  {}, {}, {},
  {}, {}, {},
  {}, {}, {},
  {}, {}, {},
  {}, {}, {},
  {}, {}, {},
  {}, {}, {},
  {}, {}, {},
  {}, {}, {},
  {}, {}, {},
  {}, {}, {},
  {}, {}, {},
  {}, {}, {},
  {}, {}, {},
  {}, {}, {},
  {}, {}, {},
  {}, {}, {},
  {}, {}, {},
  {}, {}, {},
  {}, {}, {},
  {}, {}, {},
  {}, {}, {},
  {}, {}, {},
  {}, {}, {},
  {}, {}, {},
  {}, {}, {},
  {}, {}, {},
  {}, {}, {},
  {}, {}, {},
  {}, {}, {},
  {}, {}, {},
  {}, {}, {},
  {}, {}, {},
  {}, {}, {},
  {}, {}, {},
  {}, {}, {},
  {}, {}, {},
  {}, {}, {},
  {}, {}, {},
  {}, {}, {},
  {}, {}, {},
  {}, {}, {},
  {}, {}, {},
  {}, {}, {},
  {}, {}, {},
  {}, {}, {},
  {}, {}, {},
  {}, {}, {},
  {}, {}, {},
  {}, {}, {},
  {}, {}, {},
  {}, {}, {},
  {}, {}, {},
  {}, {}, {},
  {}, {}, {},
  {}, {}, {},
  {}, {}, {},
  {}, {}, {},
  {}, {}, {},
  {}, {}, {},
  {}, {}, {},
  {}, {}, {},
  {}, {}, {},
  {}, {}, {},
  {}, {}, {},
  {}, {}, {},
  {}, {}, {},
  {}, {}, {},
  {}, {}, {},
  {}, {}, {},
  {}, {}, {},
  {}, {}, {},
  {}, {}, {},
  {}, {}, {},
  {}, {}, {},
  {}, {}, {},
  {}, {}, {},
  {}, {}, {},
  {}, {}, {},
  {}, {}, {},
  {}, {}, {},
  {}, {}, {},
  {}, {}, {},
  {}, {}, {},
  {}, {}, {},
  {}, {}, {},
  {}, {}, {},
  {}, {}, {},
  {}, {}, {},
  {}, {}, {},
  {}, {}, {},
  {}, {}, {},
  {}, {}, {},
  {}, {}, {},
  {}, {}, {},
  {}, {}, {},
  {}, {}, {},
  {}, {}, {},
  {}, {}, {},
  {}, {}, {},
  {}, {}, {},
  {}, {}, {},
  {}, {}, {},
  {}, {}, {},
  {}, {}, {},
  {}, {}, {},
  {}, {}, {},
  {}, {}, {},
  {}, {}, {},
  {}, {}, {},
  {}, {}, {},
  {}, {}, {},
  {}, {}, {},
  {}, {}, {},
  {}, {}, {},
  {}, {}, {},
  {}, {}, {},
  {}, {}, {},
  {}, {}, {},
  {}, {}, {},
  {}, {}, {},
  {}, {}, {},
  {}, {}, {},
  {}, {}, {},
  {}, {}, {},
  {}, {}, {},
  {}, {}, {},
  {}, {}, {},
  {}, {}, {},
  {}, {}, {},
  {}, {}, {},
  {}, {}, {},
  {}, {}, {},
  {}, {}, {},
  {}, {}, {},
  {}, {}, {},
  {}, {}, {},
  {}, {}, {},
  {}, {}, {},
  {}, {}, {},
  {}, {}, {},
  {}, {}, {},
  {}, {}, {},
  {}, {}, {},
  {}, {}, {},
  {}, {}, {},
  {}, {}, {},
  {}, {}, {},
  {}, {}, {},
  {}, {}, {},
  {}, {}, {},
  {}, {}, {},
  {}, {}, {},
  {}, {}, {},
  {}, {}, {},
  {}, {}, {},
  {}, {}, {},
  {}, {}, {},
  {}, {}, {},
  {}, {}, {},
  {}, {}, {},
  {}, {}, {},
  {}, {}, {},
  {}, {}, {},
  {}, {}, {},
  {}, {}, {},
  {}, {}, {},
  {}, {}, {},
  {}, {}, {},
  {}, {}, {},
  {}, {}, {},
  {}, {}, {},
  {}, {}, {},
  {}, {}, {},
  {}, {}, {},
  {}, {}, {},
  {}, {}, {},
  {}, {}, {},
  {}, {}, {},
  {}, {}, {},
  {}, {}, {},
  {}, {}, {},
  {}, {}, {},
  {}, {}, {},
  {}, {}, {},
  {}, {}, {},
  {}, {}, {},
  {}, {}, {},
  {}, {}, {},
  {}, {}, {},
  {}, {}, {},
  {}, {}, {},
  {}, {}, {},
  {}, {}, {},
  {}, {}, {},
  {}, {}, {},
  {}, {}, {},
  {}, {}, {},
  {}, {}, {},
  {}, {}, {},
  {}, {}, {},
  {}, {}, {},
  {}, {}, {},
  {}, {}, {},
  {}, {}, {},
  {}, {}, {},
  {}, {}, {},
  {}, {}, {},
  {}, {}, {},
  {}, {}, {},
  {}, {}, {},
  {}, {}, {},
  {}, {}, {},
  {}, {}, {},
  {}, {}, {},
  {}, {}, {},
  {}, {}, {},
  {}, {}, {}
]);
